(declare-fun temp70_1 () (_ BitVec 64))
(declare-fun var461925 () (_ BitVec 64))
(declare-fun temp70_2 () (_ BitVec 64))
(declare-fun var724069 () (_ BitVec 64))
(declare-fun temp70_3 () (_ BitVec 64))
(declare-fun temp70_4 () (_ BitVec 64))
(declare-fun var69380 () (_ BitVec 64))
(declare-fun k!0 () Bool)
(declare-fun ARGNAME_rtol_NAMEEND () (_ BitVec 64))
(declare-fun temp70_5 () (_ BitVec 64))
(declare-fun ARGNAME_atol_NAMEEND () (_ BitVec 64))
(declare-fun var69401 () (_ BitVec 64))
(declare-fun temp70_6 () (_ BitVec 64))
(declare-fun temp70_7 () (_ BitVec 64))
(declare-fun temp70_8 () (_ BitVec 64))
(declare-fun ARGNAME_input_NAMEEND_DIMSIZE
             ()
             (Array (_ BitVec 64) (_ BitVec 64)))
(declare-fun temp70_9 () (_ BitVec 64))
(declare-fun temp70_10 () (_ BitVec 64))
(declare-fun temp70_11 () (_ BitVec 64))
(declare-fun temp70_12 () (_ BitVec 64))
(declare-fun temp70_13 () (_ BitVec 64))
(declare-fun temp70_14 () (_ BitVec 64))
(declare-fun temp70_15 () (_ BitVec 64))
(declare-fun temp70_16 () (_ BitVec 64))
(declare-fun temp70_17 () (_ BitVec 64))
(declare-fun temp70_18 () (_ BitVec 64))
(declare-fun temp70_19 () (_ BitVec 64))
(declare-fun temp70_20 () (_ BitVec 64))
(declare-fun temp70_21 () (_ BitVec 64))
(declare-fun temp70_22 () (_ BitVec 64))
(declare-fun temp70_23 () (_ BitVec 64))
(declare-fun temp70_24 () (_ BitVec 64))
(declare-fun temp70_25 () (_ BitVec 64))
(declare-fun temp70_26 () (_ BitVec 64))
(declare-fun ARGNAME_other_NAMEEND_DIMSIZE
             ()
             (Array (_ BitVec 64) (_ BitVec 64)))
(declare-fun temp70_27 () (_ BitVec 64))
(declare-fun temp70_28 () (_ BitVec 64))
(declare-fun temp70_29 () (_ BitVec 64))
(declare-fun temp70_30 () (_ BitVec 64))
(declare-fun temp70_31 () (_ BitVec 64))
(declare-fun temp70_32 () (_ BitVec 64))
(declare-fun temp70_33 () (_ BitVec 64))
(declare-fun temp70_34 () (_ BitVec 64))
(declare-fun temp70_35 () (_ BitVec 64))
(declare-fun temp70_36 () (_ BitVec 64))
(declare-fun temp70_37 () (_ BitVec 64))
(declare-fun temp70_38 () (_ BitVec 64))
(declare-fun temp70_39 () (_ BitVec 64))
(declare-fun temp70_40 () (_ BitVec 64))
(declare-fun temp70_41 () (_ BitVec 64))
(declare-fun temp70_42 () (_ BitVec 64))
(declare-fun temp70_43 () (_ BitVec 64))
(declare-fun temp70_44 () (_ BitVec 64))
(declare-fun temp70_45 () (_ BitVec 64))
(declare-fun temp70_46 () (_ BitVec 64))
(declare-fun temp70_47 () (_ BitVec 64))
(declare-fun temp70_48 () (_ BitVec 64))
(declare-fun temp70_49 () (_ BitVec 64))
(declare-fun temp70_50 () (_ BitVec 64))
(declare-fun temp70_51 () (_ BitVec 64))
(declare-fun temp70_52 () (_ BitVec 64))
(declare-fun temp70_53 () (_ BitVec 64))
(declare-fun temp70_54 () (_ BitVec 64))
(declare-fun temp70_55 () (_ BitVec 64))
(declare-fun temp70_56 () (_ BitVec 64))
(declare-fun temp70_57 () (_ BitVec 64))
(declare-fun temp70_58 () (_ BitVec 64))
(declare-fun temp70_59 () (_ BitVec 64))
(declare-fun temp70_60 () (_ BitVec 64))
(declare-fun temp70_61 () (_ BitVec 64))
(declare-fun temp70_62 () (_ BitVec 64))
(declare-fun temp70_63 () (_ BitVec 64))
(declare-fun temp70_64 () (_ BitVec 64))
(declare-fun temp70_65 () (_ BitVec 64))
(declare-fun temp70_66 () (_ BitVec 64))
(declare-fun temp70_67 () (_ BitVec 64))
(declare-fun temp70_68 () (_ BitVec 64))
(declare-fun temp70_69 () (_ BitVec 64))
(declare-fun temp70_70 () (_ BitVec 64))
(declare-fun temp70_71 () (_ BitVec 64))
(declare-fun temp70_72 () (_ BitVec 64))
(declare-fun temp70_73 () (_ BitVec 64))
(declare-fun temp70_74 () (_ BitVec 64))
(declare-fun temp70_75 () (_ BitVec 64))
(declare-fun temp70_76 () (_ BitVec 64))
(declare-fun temp70_77 () (_ BitVec 64))
(declare-fun temp70_78 () (_ BitVec 64))
(declare-fun ARGNAME_other_NAMEEND_DIM () (_ BitVec 64))
(declare-fun temp70_79 () (_ BitVec 64))
(declare-fun ARGNAME_equal_nan_NAMEEND () (_ BitVec 64))
(declare-fun temp70_80 () (_ BitVec 64))
(declare-fun var987402 () (_ BitVec 64))
(declare-fun var987367 () (_ BitVec 64))
(declare-fun var69428 () (_ BitVec 64))
(declare-fun temp70_81 () (_ BitVec 64))
(declare-fun temp70_82 () (_ BitVec 64))
(declare-fun var69543 () (_ BitVec 64))
(declare-fun temp70_83 () (_ BitVec 64))
(declare-fun var69545 () (_ BitVec 64))
(declare-fun var69546 () (_ BitVec 64))
(declare-fun temp70_84 () (_ BitVec 64))
(declare-fun temp70_85 () (_ BitVec 64))
(declare-fun var1970478 () (_ BitVec 64))
(declare-fun temp70_86 () (_ BitVec 64))
(declare-fun var1970479 () (_ BitVec 64))
(declare-fun var2294910 () (_ BitVec 64))
(declare-fun var2294911 () (_ BitVec 64))
(declare-fun temp70_87 () (_ BitVec 64))
(declare-fun var2822554 () (_ BitVec 64))
(declare-fun temp70_88 () (_ BitVec 64))
(declare-fun var3346842 () (_ BitVec 64))
(assert (= temp70_1 #x0000000000080000))
(assert (= var461925 temp70_1))
(assert (= temp70_2 #x0000000000080000))
(assert (= var724069 temp70_2))
(assert (= temp70_3 #x0000000000000000))
(assert (= var69380
   (ite (bvslt ARGNAME_rtol_NAMEEND temp70_3)
        #x0000000000000001
        #x0000000000000000)))
(assert (= temp70_4 #x0000000000000000))
(assert (= var69380 temp70_4))
(assert (= temp70_5 #x0000000000000000))
(assert (= var69401
   (ite (bvslt ARGNAME_atol_NAMEEND temp70_5)
        #x0000000000000001
        #x0000000000000000)))
(assert (= temp70_6 #x0000000000000000))
(assert (= var69401 temp70_6))
(assert (= temp70_7 #x0000000000000000))
(assert (= temp70_8 temp70_7))
(assert (= temp70_9 (select ARGNAME_input_NAMEEND_DIMSIZE temp70_8)))
(assert (= temp70_10 #x0000000000000001))
(assert (= temp70_11 temp70_10))
(assert (= temp70_12 (select ARGNAME_input_NAMEEND_DIMSIZE temp70_11)))
(assert (= temp70_13 #x0000000000000002))
(assert (= temp70_14 temp70_13))
(assert (= temp70_15 (select ARGNAME_input_NAMEEND_DIMSIZE temp70_14)))
(assert (= temp70_16 #x0000000000000003))
(assert (= temp70_17 temp70_16))
(assert (= temp70_18 (select ARGNAME_input_NAMEEND_DIMSIZE temp70_17)))
(assert (= temp70_19 #x0000000000000004))
(assert (= temp70_20 temp70_19))
(assert (= temp70_21 (select ARGNAME_input_NAMEEND_DIMSIZE temp70_20)))
(assert (= temp70_22 #x0000000000000005))
(assert (= temp70_23 temp70_22))
(assert (= temp70_24 (select ARGNAME_input_NAMEEND_DIMSIZE temp70_23)))
(assert (= temp70_25 #x0000000000000000))
(assert (= temp70_26 temp70_25))
(assert (= temp70_27 (select ARGNAME_other_NAMEEND_DIMSIZE temp70_26)))
(assert (= temp70_28 #x0000000000000001))
(assert (= temp70_29 temp70_28))
(assert (= temp70_30 (select ARGNAME_other_NAMEEND_DIMSIZE temp70_29)))
(assert (= temp70_31 #x0000000000000002))
(assert (= temp70_32 temp70_31))
(assert (= temp70_33 (select ARGNAME_other_NAMEEND_DIMSIZE temp70_32)))
(assert (= temp70_34 #x0000000000000003))
(assert (= temp70_35 temp70_34))
(assert (= temp70_36 (select ARGNAME_other_NAMEEND_DIMSIZE temp70_35)))
(assert (= temp70_37 #x0000000000000004))
(assert (= temp70_38 temp70_37))
(assert (= temp70_39 (select ARGNAME_other_NAMEEND_DIMSIZE temp70_38)))
(assert (= temp70_40 #x0000000000000005))
(assert (= temp70_41 temp70_40))
(assert (= temp70_42 (select ARGNAME_other_NAMEEND_DIMSIZE temp70_41)))
(assert (= temp70_43 temp70_11))
(assert (= temp70_44 (select ARGNAME_other_NAMEEND_DIMSIZE temp70_43)))
(assert (= temp70_45 temp70_14))
(assert (= temp70_46 (select ARGNAME_other_NAMEEND_DIMSIZE temp70_45)))
(assert (= temp70_47 temp70_17))
(assert (= temp70_48 (select ARGNAME_other_NAMEEND_DIMSIZE temp70_47)))
(assert (= temp70_49 temp70_20))
(assert (= temp70_50 (select ARGNAME_other_NAMEEND_DIMSIZE temp70_49)))
(assert (= temp70_51 temp70_23))
(assert (= temp70_52 (select ARGNAME_other_NAMEEND_DIMSIZE temp70_51)))
(assert (= temp70_53 temp70_8))
(assert (= temp70_54 (select ARGNAME_other_NAMEEND_DIMSIZE temp70_53)))
(assert (= temp70_55 temp70_26))
(assert (= temp70_56 (select ARGNAME_input_NAMEEND_DIMSIZE temp70_55)))
(assert (= temp70_57 temp70_29))
(assert (= temp70_58 (select ARGNAME_input_NAMEEND_DIMSIZE temp70_57)))
(assert (= temp70_59 temp70_32))
(assert (= temp70_60 (select ARGNAME_input_NAMEEND_DIMSIZE temp70_59)))
(assert (= temp70_61 temp70_35))
(assert (= temp70_62 (select ARGNAME_input_NAMEEND_DIMSIZE temp70_61)))
(assert (= temp70_63 temp70_38))
(assert (= temp70_64 (select ARGNAME_input_NAMEEND_DIMSIZE temp70_63)))
(assert (= temp70_65 temp70_41))
(assert (= temp70_66 (select ARGNAME_input_NAMEEND_DIMSIZE temp70_65)))
(assert (= temp70_67 temp70_43))
(assert (= temp70_68 (select ARGNAME_input_NAMEEND_DIMSIZE temp70_67)))
(assert (= temp70_69 temp70_45))
(assert (= temp70_70 (select ARGNAME_input_NAMEEND_DIMSIZE temp70_69)))
(assert (= temp70_71 temp70_47))
(assert (= temp70_72 (select ARGNAME_input_NAMEEND_DIMSIZE temp70_71)))
(assert (= temp70_73 temp70_49))
(assert (= temp70_74 (select ARGNAME_input_NAMEEND_DIMSIZE temp70_73)))
(assert (= temp70_75 temp70_51))
(assert (= temp70_76 (select ARGNAME_input_NAMEEND_DIMSIZE temp70_75)))
(assert (= temp70_77 temp70_53))
(assert (= temp70_78 (select ARGNAME_input_NAMEEND_DIMSIZE temp70_77)))
(assert (= (and true
        (= temp70_44 temp70_12)
        (= temp70_46 temp70_15)
        (= temp70_48 temp70_18)
        (= temp70_50 temp70_21)
        (= temp70_52 temp70_24)
        (= temp70_54 temp70_9)
        (= temp70_56 temp70_27)
        (= temp70_58 temp70_30)
        (= temp70_60 temp70_33)
        (= temp70_62 temp70_36)
        (= temp70_64 temp70_39)
        (= temp70_66 temp70_42)
        (= temp70_68 temp70_44)
        (= temp70_70 temp70_46)
        (= temp70_72 temp70_48)
        (= temp70_74 temp70_50)
        (= temp70_76 temp70_52)
        (= temp70_78 temp70_54))
   true))
(assert (= ARGNAME_other_NAMEEND_DIM ARGNAME_other_NAMEEND_DIM))
(assert (= temp70_79 #x0000000000000001))
(assert (= ARGNAME_equal_nan_NAMEEND temp70_79))
(assert (= temp70_80 #x0000000000000001))
(assert (= var987402 temp70_80))
(assert (= var987367 var987402))
(assert (= var69428 var987367))
(assert (= temp70_81 #x0000000000000001))
(assert (= var69428 temp70_81))
(assert (= temp70_82 #x0000000000000000))
(assert (= var69543
   (ite (= ARGNAME_rtol_NAMEEND temp70_82)
        #x0000000000000001
        #x0000000000000000)))
(assert (= temp70_83 #x0000000000000000))
(assert (= var69545
   (ite (= ARGNAME_atol_NAMEEND temp70_83)
        #x0000000000000001
        #x0000000000000000)))
(assert (= var69546 (bvand var69543 var69545)))
(assert (= temp70_84 #x0000000000000000))
(assert (= var69546 temp70_84))
(assert (= temp70_85 #x0000000000000000))
(assert (= var1970478 temp70_85))
(assert (= temp70_86 #x0000000000000000))
(assert (= var1970479 temp70_86))
(assert (= var2294910 var1970478))
(assert (= var2294911 var1970479))
(assert (= temp70_87 #x0000000000000001))
(assert (= var2822554 temp70_87))
(assert (= temp70_88 #x0000000000000001))
(assert (= var3346842 temp70_88))
(model-add temp70_1 () (_ BitVec 64) #x0000000000080000)
(model-add var461925 () (_ BitVec 64) #x0000000000080000)
(model-add temp70_2 () (_ BitVec 64) #x0000000000080000)
(model-add var724069 () (_ BitVec 64) #x0000000000080000)
(model-add temp70_3 () (_ BitVec 64) #x0000000000000000)
(model-add temp70_4 () (_ BitVec 64) #x0000000000000000)
(model-add var69380 () (_ BitVec 64) #x0000000000000000)
(model-del k!0)
(model-add ARGNAME_rtol_NAMEEND
           ()
           (_ BitVec 64)
           (ite (or k!0 (= #x0000000000000000 #x8000000000000000))
                #x0000000000000000
                (bvsub #x0000000000000000 #x0000000000000001)))






